&bands
  prefix = 'di-bands'
  outdir = './'
  lsym = .false.  
  filband = 'diamond.bands_pw.dat'
/
